data/instances/vrp_files/train_57.vrp
NAME : 57
COMMENT : Generated instance No. 57
TYPE : CVRP
DIMENSION : 21
EDGE_WEIGHT_TYPE : EUC_2D
CAPACITY : 30
NODE_COORD_SECTION
 1 758 597
 2 74 375
 3 803 433
 4 997 559
 5 321 220
 6 350 372
 7 68 369
 8 464 722
 9 656 708
 10 8 217
 11 661 483
 12 5 804
 13 772 548
 14 66 766
 15 583 781
 16 751 803
 17 518 140
 18 671 620
 19 742 169
 20 194 890
 21 749 908
DEMAND_SECTION
1 0
2 10
3 4
4 10
5 5
6 5
7 6
8 10
9 10
10 6
11 8
12 8
13 9
14 8
15 2
16 10
17 1
18 10
19 2
20 2
21 3
DEPOT_SECTION
 1
 -1
EOF